p cnf 153 427
1 2 0
-1 -2 0
19 20 0
-19 -20 0
37 38 0
-37 -38 0
55 56 0
-55 -56 0
3 4 0
-3 -4 0
21 22 0
-21 -22 0
39 40 0
-39 -40 0
57 58 0
-57 -58 0
5 6 0
-5 -6 0
23 24 0
-23 -24 0
41 42 0
-41 -42 0
59 60 0
-59 -60 0
7 8 0
-7 -8 0
25 26 0
-25 -26 0
43 44 0
-43 -44 0
61 62 0
-61 -62 0
9 10 0
-9 -10 0
27 28 0
-27 -28 0
45 46 0
-45 -46 0
63 64 0
-63 -64 0
11 12 0
-11 -12 0
29 30 0
-29 -30 0
47 48 0
-47 -48 0
65 66 0
-65 -66 0
13 14 0
-13 -14 0
31 32 0
-31 -32 0
49 50 0
-49 -50 0
67 68 0
-67 -68 0
15 16 0
-15 -16 0
33 34 0
-33 -34 0
51 52 0
-51 -52 0
69 70 0
-69 -70 0
17 18 0
-17 -18 0
35 36 0
-35 -36 0
53 54 0
-53 -54 0
71 72 0
-71 -72 0
-1 -19 4 0
-1 -20 4 0
-2 -19 4 0
-2 -20 3 0
-19 -1 -37 22 0
-19 -2 -37 22 0
-19 -1 -38 22 0
-19 -2 -38 22 0
-20 -1 -37 22 0
-20 -2 -37 22 0
-20 -1 -38 22 0
-20 -2 -38 21 0
-37 -19 -55 40 0
-37 -20 -55 40 0
-37 -19 -56 40 0
-37 -20 -56 40 0
-38 -19 -55 40 0
-38 -20 -55 40 0
-38 -19 -56 40 0
-38 -20 -56 39 0
-55 -37 58 0
-55 -38 58 0
-56 -37 58 0
-56 -38 57 0
-3 -21 6 0
-3 -22 6 0
-4 -21 6 0
-4 -22 5 0
-21 -3 -39 24 0
-21 -4 -39 24 0
-21 -3 -40 24 0
-21 -4 -40 24 0
-22 -3 -39 24 0
-22 -4 -39 24 0
-22 -3 -40 24 0
-22 -4 -40 23 0
-39 -21 -57 42 0
-39 -22 -57 42 0
-39 -21 -58 42 0
-39 -22 -58 42 0
-40 -21 -57 42 0
-40 -22 -57 42 0
-40 -21 -58 42 0
-40 -22 -58 41 0
-57 -39 60 0
-57 -40 60 0
-58 -39 60 0
-58 -40 59 0
-5 -23 8 0
-5 -24 8 0
-6 -23 8 0
-6 -24 7 0
-23 -5 -41 26 0
-23 -6 -41 26 0
-23 -5 -42 26 0
-23 -6 -42 26 0
-24 -5 -41 26 0
-24 -6 -41 26 0
-24 -5 -42 26 0
-24 -6 -42 25 0
-41 -23 -59 44 0
-41 -24 -59 44 0
-41 -23 -60 44 0
-41 -24 -60 44 0
-42 -23 -59 44 0
-42 -24 -59 44 0
-42 -23 -60 44 0
-42 -24 -60 43 0
-59 -41 62 0
-59 -42 62 0
-60 -41 62 0
-60 -42 61 0
-7 -25 10 0
-7 -26 10 0
-8 -25 10 0
-8 -26 9 0
-25 -7 -43 28 0
-25 -8 -43 28 0
-25 -7 -44 28 0
-25 -8 -44 28 0
-26 -7 -43 28 0
-26 -8 -43 28 0
-26 -7 -44 28 0
-26 -8 -44 27 0
-43 -25 -61 46 0
-43 -26 -61 46 0
-43 -25 -62 46 0
-43 -26 -62 46 0
-44 -25 -61 46 0
-44 -26 -61 46 0
-44 -25 -62 46 0
-44 -26 -62 45 0
-61 -43 64 0
-61 -44 64 0
-62 -43 64 0
-62 -44 63 0
-9 -27 12 0
-9 -28 12 0
-10 -27 12 0
-10 -28 11 0
-27 -9 -45 30 0
-27 -10 -45 30 0
-27 -9 -46 30 0
-27 -10 -46 30 0
-28 -9 -45 30 0
-28 -10 -45 30 0
-28 -9 -46 30 0
-28 -10 -46 29 0
-45 -27 -63 48 0
-45 -28 -63 48 0
-45 -27 -64 48 0
-45 -28 -64 48 0
-46 -27 -63 48 0
-46 -28 -63 48 0
-46 -27 -64 48 0
-46 -28 -64 47 0
-63 -45 66 0
-63 -46 66 0
-64 -45 66 0
-64 -46 65 0
-11 -29 14 0
-11 -30 14 0
-12 -29 14 0
-12 -30 13 0
-29 -11 -47 32 0
-29 -12 -47 32 0
-29 -11 -48 32 0
-29 -12 -48 32 0
-30 -11 -47 32 0
-30 -12 -47 32 0
-30 -11 -48 32 0
-30 -12 -48 31 0
-47 -29 -65 50 0
-47 -30 -65 50 0
-47 -29 -66 50 0
-47 -30 -66 50 0
-48 -29 -65 50 0
-48 -30 -65 50 0
-48 -29 -66 50 0
-48 -30 -66 49 0
-65 -47 68 0
-65 -48 68 0
-66 -47 68 0
-66 -48 67 0
-13 -31 16 0
-13 -32 16 0
-14 -31 16 0
-14 -32 15 0
-31 -13 -49 34 0
-31 -14 -49 34 0
-31 -13 -50 34 0
-31 -14 -50 34 0
-32 -13 -49 34 0
-32 -14 -49 34 0
-32 -13 -50 34 0
-32 -14 -50 33 0
-49 -31 -67 52 0
-49 -32 -67 52 0
-49 -31 -68 52 0
-49 -32 -68 52 0
-50 -31 -67 52 0
-50 -32 -67 52 0
-50 -31 -68 52 0
-50 -32 -68 51 0
-67 -49 70 0
-67 -50 70 0
-68 -49 70 0
-68 -50 69 0
-15 -33 18 0
-15 -34 18 0
-16 -33 18 0
-16 -34 17 0
-33 -15 -51 36 0
-33 -16 -51 36 0
-33 -15 -52 36 0
-33 -16 -52 36 0
-34 -15 -51 36 0
-34 -16 -51 36 0
-34 -15 -52 36 0
-34 -16 -52 35 0
-51 -33 -69 54 0
-51 -34 -69 54 0
-51 -33 -70 54 0
-51 -34 -70 54 0
-52 -33 -69 54 0
-52 -34 -69 54 0
-52 -33 -70 54 0
-52 -34 -70 53 0
-69 -51 72 0
-69 -52 72 0
-70 -51 72 0
-70 -52 71 0
74 75 76 77 78 79 80 81 0
84 85 -74 0
1 -84 0
3 -84 0
2 -85 0
4 -85 0
102 103 -74 0
19 -102 0
21 -102 0
20 -103 0
22 -103 0
120 121 -74 0
37 -120 0
39 -120 0
38 -121 0
40 -121 0
138 139 -74 0
55 -138 0
57 -138 0
56 -139 0
58 -139 0
86 87 -75 0
1 -86 0
5 -86 0
2 -87 0
6 -87 0
104 105 -75 0
19 -104 0
23 -104 0
20 -105 0
24 -105 0
122 123 -75 0
37 -122 0
41 -122 0
38 -123 0
42 -123 0
140 141 -75 0
55 -140 0
59 -140 0
56 -141 0
60 -141 0
88 89 -76 0
1 -88 0
7 -88 0
2 -89 0
8 -89 0
106 107 -76 0
19 -106 0
25 -106 0
20 -107 0
26 -107 0
124 125 -76 0
37 -124 0
43 -124 0
38 -125 0
44 -125 0
142 143 -76 0
55 -142 0
61 -142 0
56 -143 0
62 -143 0
90 91 -77 0
1 -90 0
9 -90 0
2 -91 0
10 -91 0
108 109 -77 0
19 -108 0
27 -108 0
20 -109 0
28 -109 0
126 127 -77 0
37 -126 0
45 -126 0
38 -127 0
46 -127 0
144 145 -77 0
55 -144 0
63 -144 0
56 -145 0
64 -145 0
92 93 -78 0
1 -92 0
11 -92 0
2 -93 0
12 -93 0
110 111 -78 0
19 -110 0
29 -110 0
20 -111 0
30 -111 0
128 129 -78 0
37 -128 0
47 -128 0
38 -129 0
48 -129 0
146 147 -78 0
55 -146 0
65 -146 0
56 -147 0
66 -147 0
94 95 -79 0
1 -94 0
13 -94 0
2 -95 0
14 -95 0
112 113 -79 0
19 -112 0
31 -112 0
20 -113 0
32 -113 0
130 131 -79 0
37 -130 0
49 -130 0
38 -131 0
50 -131 0
148 149 -79 0
55 -148 0
67 -148 0
56 -149 0
68 -149 0
96 97 -80 0
1 -96 0
15 -96 0
2 -97 0
16 -97 0
114 115 -80 0
19 -114 0
33 -114 0
20 -115 0
34 -115 0
132 133 -80 0
37 -132 0
51 -132 0
38 -133 0
52 -133 0
150 151 -80 0
55 -150 0
69 -150 0
56 -151 0
70 -151 0
98 99 -81 0
1 -98 0
17 -98 0
2 -99 0
18 -99 0
116 117 -81 0
19 -116 0
35 -116 0
20 -117 0
36 -117 0
134 135 -81 0
37 -134 0
53 -134 0
38 -135 0
54 -135 0
152 153 -81 0
55 -152 0
71 -152 0
56 -153 0
72 -153 0
-1 -19 -37 -55 0
-2 -20 -38 -56 0
